40
2 1 7
3 0 12
3 1 10
4 0 8
4 2 11
4 3 5
5 0 12
5 1 5
5 4 12
6 2 2
6 3 2
7 0 8
7 3 9
7 5 11
8 0 12
8 5 10
8 6 4
9 0 11
9 3 1
9 4 8
9 7 6
10 0 8
10 5 3
10 6 3
10 7 7
11 0 7
11 2 4
11 3 10
11 4 1
11 5 1
11 7 11
11 10 4
12 0 7
12 1 9
12 2 3
12 3 11
12 5 12
12 6 4
12 7 12
12 8 4
12 9 4
12 10 5
12 11 12
13 5 9
13 7 10
13 8 3
14 2 3
14 11 8
14 13 9
15 0 7
15 3 12
15 4 11
15 6 11
15 9 7
15 11 3
15 12 8
15 14 12
16 2 5
16 6 10
16 9 10
16 10 6
16 12 4
16 14 1
17 1 9
17 3 4
17 6 5
17 8 5
17 10 1
17 11 12
17 13 4
17 14 7
17 15 7
17 16 10
18 0 8
18 2 10
18 3 8
18 8 5
18 10 6
18 13 5
18 14 11
19 0 11
19 1 7
19 4 5
19 5 2
19 9 7
19 11 8
19 15 11
19 16 8
19 17 7
20 2 9
20 3 4
20 6 10
20 9 11
20 10 12
20 11 12
20 12 3
20 13 4
20 15 4
21 3 5
21 4 6
21 6 10
21 8 9
21 9 7
21 11 8
21 12 9
21 13 2
21 15 9
21 17 3
21 19 11
21 20 7
22 1 8
22 3 5
22 5 2
22 7 9
22 8 5
22 11 9
22 14 1
22 15 1
22 16 11
22 17 5
22 20 6
22 21 12
23 0 5
23 5 1
23 8 1
23 9 8
23 10 9
23 12 6
23 22 8
24 0 12
24 3 3
24 8 4
24 9 7
24 12 8
24 14 2
24 17 6
24 19 8
24 20 9
24 21 6
24 22 5
25 0 7
25 1 10
25 2 10
25 4 9
25 7 7
25 11 4
25 12 11
25 16 12
25 17 1
25 18 8
25 19 10
25 22 9
26 0 6
26 2 7
26 4 3
26 5 3
26 7 3
26 12 7
26 17 2
26 18 10
26 22 11
26 24 12
27 0 1
27 2 4
27 5 5
27 11 7
27 12 10
27 13 8
27 15 3
27 18 4
27 19 12
27 20 3
27 21 3
27 26 7
28 0 3
28 2 8
28 3 5
28 4 8
28 6 12
28 9 2
28 13 12
28 16 1
28 20 8
28 22 5
28 23 5
28 24 10
28 25 4
28 27 3
29 0 1
29 5 3
29 8 12
29 10 11
29 13 1
29 14 12
29 18 9
29 22 5
29 25 8
29 27 9
30 0 5
30 1 11
30 3 6
30 5 9
30 6 12
30 8 3
30 11 11
30 12 10
30 13 11
30 14 5
30 15 2
30 18 1
30 19 6
30 20 5
30 21 8
30 23 8
30 24 9
30 27 10
31 0 5
31 1 2
31 3 4
31 5 3
31 7 1
31 9 12
31 17 7
31 22 8
31 23 10
31 24 7
31 25 2
31 26 1
31 27 9
31 28 3
31 29 4
32 1 8
32 2 11
32 4 6
32 7 12
32 8 6
32 9 1
32 10 2
32 12 7
32 15 11
32 16 4
32 24 10
32 27 6
32 29 6
32 31 3
33 1 5
33 3 11
33 4 1
33 8 5
33 9 1
33 10 10
33 12 4
33 13 6
33 14 11
33 15 3
33 18 1
33 19 4
33 20 11
33 21 3
33 22 4
33 24 11
33 26 8
33 27 3
33 31 10
34 2 5
34 5 2
34 7 2
34 9 8
34 10 5
34 11 4
34 14 7
34 16 9
34 18 3
34 21 4
34 22 10
34 24 6
34 26 5
34 27 1
34 28 11
34 30 12
34 32 11
34 33 6
35 1 5
35 4 8
35 6 8
35 8 6
35 9 2
35 10 9
35 11 7
35 12 8
35 13 5
35 15 7
35 16 7
35 18 12
35 19 10
35 21 6
35 22 2
35 27 11
35 28 7
35 30 6
35 31 12
35 32 11
36 1 6
36 2 3
36 4 4
36 11 1
36 12 1
36 13 1
36 14 10
36 16 12
36 19 12
36 25 3
36 27 1
36 28 9
36 29 8
36 30 7
36 31 12
36 32 9
36 34 9
36 35 12
37 4 5
37 9 4
37 15 5
37 16 10
37 17 5
37 20 9
37 24 8
37 25 11
37 27 8
37 30 5
37 31 5
37 34 9
37 35 4
37 36 7
38 4 3
38 6 9
38 7 12
38 8 4
38 10 8
38 11 6
38 12 10
38 13 2
38 16 4
38 17 2
38 19 4
38 20 3
38 22 1
38 23 10
38 24 12
38 27 5
38 28 6
38 30 5
38 31 12
38 32 12
38 33 6
38 35 12
39 1 9
39 2 12
39 7 3
39 8 2
39 10 6
39 15 4
39 16 2
39 21 5
39 23 5
39 25 5
39 29 9
39 33 3
39 35 11
39 38 6
